12 18

16 14 2 13 17 8 9 4 11 5 4 2
13 9 2 3 11 15 10 11 1 14 9 15
9 3 11 8 8 3 3 9 15 6
11 8 1 3 17 10 7 14 8 15 5 9
13 6 6 6 7 11 16 3 3 7
6 8 8 6 17 10 3 13 15 4 12 3
5 8 1 13 6 8 7 13
15 11 1 4 11 8 2 8
9 9 18 10 14 13 4 11 8 7
12 12 11 11 6 9 10 2 1 5 15 13
16 13 2 3 1 6 8 12
1 2 7 13 17 9 14 13
